Gurobi Optimizer version 9.1.0 build v9.1.0rc0 (linux64)
Thread count: 8 physical cores, 16 logical processors, using up to 16 threads
Optimize a model with 104216 rows, 100800 columns and 576950 nonzeros
Model fingerprint: 0x85ff3165
Variable types: 0 continuous, 100800 integer (100800 binary)
Coefficient statistics:
  Matrix range     [1e+00, 1e+00]
  Objective range  [1e+01, 3e+04]
  Bounds range     [1e+00, 1e+00]
  RHS range        [1e+00, 2e+02]
Presolve added 0 rows and 1450 columns
Presolve removed 50 rows and 0 columns
Presolve time: 2.14s
Presolved: 104166 rows, 102250 columns, 431350 nonzeros
Variable types: 0 continuous, 102250 integer (102250 binary)
Found heuristic solution: objective 330879.00000

Concurrent LP optimizer: primal simplex, dual simplex, and barrier
Showing barrier log only...

Root barrier log...

Ordering time: 0.41s

Barrier statistics:
 Dense cols : 400
 AA' NZ     : 3.344e+05
 Factor NZ  : 1.300e+06 (roughly 100 MBytes of memory)
 Factor Ops : 3.284e+08 (less than 1 second per iteration)
 Threads    : 6

                  Objective                Residual
Iter       Primal          Dual         Primal    Dual     Compl     Time
   0   7.95514191e+07 -1.07232014e+08  3.26e+02 3.06e+01  8.58e+03     4s
   1   7.12304700e+05 -1.10931888e+08  1.61e+00 9.06e+01  4.01e+02     4s
   2   4.43166786e+05 -5.98594282e+07  4.63e-01 4.78e+01  2.04e+02     5s
   3   3.83550129e+05 -2.57762863e+07  1.90e-01 1.92e+01  8.70e+01     5s
   4   3.46952394e+05 -9.32303805e+05  2.86e-02 2.22e+00  4.19e+00     5s
   5   3.37659954e+05 -1.50357542e+05  1.99e-02 7.34e-01  1.59e+00     5s
   6   3.27539656e+05 -2.91621757e+04  1.46e-02 5.26e-01  1.16e+00     5s
   7   3.17221499e+05  1.55368184e+05  1.08e-02 2.14e-01  5.24e-01     6s
   8   3.11027668e+05  2.06370980e+05  9.19e-03 1.11e-01  3.37e-01     6s
   9   3.07543482e+05  2.20327634e+05  8.33e-03 8.63e-02  2.81e-01     6s
  10   3.02854392e+05  2.36716888e+05  7.23e-03 5.72e-02  2.12e-01     6s
  11   2.98774442e+05  2.48738843e+05  6.33e-03 3.54e-02  1.60e-01     7s
  12   2.93876915e+05  2.54323079e+05  5.23e-03 2.58e-02  1.27e-01     7s
  13   2.90666089e+05  2.57101778e+05  4.53e-03 2.09e-02  1.07e-01     7s
  14   2.89748525e+05  2.59666038e+05  4.35e-03 1.67e-02  9.60e-02     8s
  15   2.85081289e+05  2.62458038e+05  3.39e-03 1.61e-02  7.22e-02     8s
  16   2.83411879e+05  2.64095259e+05  3.03e-03 1.59e-02  6.15e-02     8s
  17   2.80297625e+05  2.64925496e+05  2.35e-03 1.40e-02  4.90e-02     8s
  18   2.78754789e+05  2.65786221e+05  2.02e-03 1.18e-02  4.13e-02     9s
  19   2.76770001e+05  2.66446864e+05  1.62e-03 9.53e-03  3.29e-02     9s
  20   2.76335706e+05  2.66814679e+05  1.52e-03 8.27e-03  3.03e-02     9s
  21   2.74837227e+05  2.67221880e+05  1.20e-03 7.57e-03  2.43e-02     9s
  22   2.73619937e+05  2.67365341e+05  9.41e-04 7.04e-03  1.99e-02    10s
  23   2.73044034e+05  2.67564723e+05  8.22e-04 6.31e-03  1.75e-02    10s
  24   2.72517118e+05  2.67942360e+05  7.05e-04 5.16e-03  1.46e-02    10s
  25   2.71682980e+05  2.68123422e+05  5.21e-04 4.47e-03  1.14e-02    10s
  26   2.71308624e+05  2.68272210e+05  4.38e-04 3.92e-03  9.69e-03    11s
  27   2.70923775e+05  2.68398029e+05  3.52e-04 3.57e-03  8.07e-03    11s
  28   2.70590980e+05  2.68514576e+05  2.78e-04 3.09e-03  6.64e-03    11s
  29   2.70436175e+05  2.68598762e+05  2.43e-04 2.76e-03  5.87e-03    11s
  30   2.70282375e+05  2.68814587e+05  2.10e-04 1.99e-03  4.69e-03    12s
  31   2.70125832e+05  2.68923001e+05  1.75e-04 1.59e-03  3.84e-03    12s
  32   2.69971423e+05  2.68970879e+05  1.42e-04 1.39e-03  3.19e-03    12s
  33   2.69858822e+05  2.69015554e+05  1.16e-04 1.22e-03  2.69e-03    12s
  34   2.69795058e+05  2.69047468e+05  1.02e-04 1.06e-03  2.39e-03    13s
  35   2.69691834e+05  2.69099840e+05  7.96e-05 9.67e-04  1.89e-03    13s
  36   2.69638016e+05  2.69133550e+05  6.79e-05 7.91e-04  1.61e-03    13s
  37   2.69597145e+05  2.69163220e+05  5.90e-05 6.69e-04  1.39e-03    13s
  38   2.69554513e+05  2.69197559e+05  4.97e-05 5.25e-04  1.14e-03    14s
  39   2.69486727e+05  2.69220471e+05  3.52e-05 4.28e-04  8.51e-04    14s
  40   2.69460655e+05  2.69230020e+05  2.96e-05 4.03e-04  7.38e-04    14s
  41   2.69445869e+05  2.69244167e+05  2.64e-05 3.14e-04  6.45e-04    14s
  42   2.69413574e+05  2.69262232e+05  1.96e-05 2.41e-04  4.84e-04    14s
  43   2.69387475e+05  2.69272803e+05  1.42e-05 2.24e-04  3.67e-04    15s
  44   2.69376589e+05  2.69281431e+05  1.19e-05 2.11e-04  3.05e-04    15s
  45   2.69365876e+05  2.69288254e+05  9.57e-06 1.74e-04  2.49e-04    15s
  46   2.69352521e+05  2.69295738e+05  6.84e-06 1.34e-04  1.82e-04    15s
  47   2.69346099e+05  2.69300662e+05  5.47e-06 1.17e-04  1.46e-04    15s
  48   2.69342014e+05  2.69305945e+05  4.63e-06 8.13e-05  1.15e-04    16s
  49   2.69335879e+05  2.69307353e+05  3.41e-06 7.09e-05  9.14e-05    16s
  50   2.69334454e+05  2.69308236e+05  3.11e-06 6.53e-05  8.40e-05    16s
  51   2.69329382e+05  2.69310322e+05  2.10e-06 5.20e-05  6.11e-05    16s
  52   2.69326690e+05  2.69313247e+05  1.55e-06 3.33e-05  4.31e-05    17s
  53   2.69322770e+05  2.69314931e+05  7.57e-07 2.05e-05  2.52e-05    17s
  54   2.69321612e+05  2.69315614e+05  5.34e-07 1.71e-05  1.93e-05    17s
  55   2.69320568e+05  2.69317860e+05  3.26e-07 5.29e-06  8.67e-06    17s
  56   2.69319145e+05  2.69318285e+05  5.42e-08 2.99e-06  2.78e-06    17s
  57   2.69318868e+05  2.69318840e+05  3.69e-09 3.34e-08  9.04e-08    17s
  58   2.69318847e+05  2.69318847e+05  1.23e-11 1.55e-08  2.41e-12    17s

Barrier solved model in 58 iterations and 17.45 seconds
Optimal objective 2.69318847e+05


Root crossover log...

   60923 DPushes remaining with DInf 0.0000000e+00                18s
       0 DPushes remaining with DInf 0.0000000e+00                18s

     454 PPushes remaining with PInf 0.0000000e+00                18s
       0 PPushes remaining with PInf 0.0000000e+00                18s

  Push phase complete: Pinf 0.0000000e+00, Dinf 5.4681593e-11     18s


Root simplex log...

Iteration    Objective       Primal Inf.    Dual Inf.      Time
    6597    2.6931885e+05   0.000000e+00   0.000000e+00     18s
    6597    2.6931885e+05   0.000000e+00   0.000000e+00     18s

Solved with barrier

Root relaxation: objective 2.693188e+05, 6597 iterations, 15.16 seconds

    Nodes    |    Current Node    |     Objective Bounds      |     Work
 Expl Unexpl |  Obj  Depth IntInf | Incumbent    BestBd   Gap | It/Node Time

     0     0 269318.847    0 4415 330879.000 269318.847  18.6%     -   19s
H    0     0                    270978.00000 269318.847  0.61%     -   20s
H    0     0                    270935.00000 269318.847  0.60%     -   20s
H    0     0                    270801.00000 269318.847  0.55%     -   20s
     0     0 269323.216    0 4446 270801.000 269323.216  0.55%     -   25s
H    0     0                    270593.00000 269323.216  0.47%     -   44s
     0     0 269323.845    0 4445 270593.000 269323.845  0.47%     -   45s
     0     0 269323.861    0 4446 270593.000 269323.861  0.47%     -   45s
     0     0 269329.574    0 4458 270593.000 269329.574  0.47%     -   52s
H    0     0                    270568.00000 269329.574  0.46%     -   53s
     0     0 269330.241    0 4564 270568.000 269330.241  0.46%     -   54s
     0     0 269330.344    0 4569 270568.000 269330.344  0.46%     -   54s
     0     0 269330.348    0 4568 270568.000 269330.348  0.46%     -   55s
     0     0 269334.739    0 4464 270568.000 269334.739  0.46%     -   59s
     0     0 269335.098    0 4455 270568.000 269335.098  0.46%     -   61s
     0     0 269335.169    0 4461 270568.000 269335.169  0.46%     -   61s
     0     0 269335.264    0 4472 270568.000 269335.264  0.46%     -   62s
     0     0 269335.264    0 4473 270568.000 269335.264  0.46%     -   62s
     0     0 269344.003    0 4552 270568.000 269344.003  0.45%     -   67s
H    0     0                    270507.00000 269344.003  0.43%     -   68s
     0     0 269344.462    0 4549 270507.000 269344.462  0.43%     -   69s
     0     0 269344.495    0 4551 270507.000 269344.495  0.43%     -   69s
     0     0 269348.290    0 4564 270507.000 269348.290  0.43%     -   72s
     0     0 269348.356    0 4560 270507.000 269348.356  0.43%     -   74s
     0     0 269348.370    0 4563 270507.000 269348.370  0.43%     -   74s
     0     0 269352.617    0 4553 270507.000 269352.617  0.43%     -   77s
H    0     0                    270470.00000 269352.617  0.41%     -   79s
     0     0 269353.301    0 4560 270470.000 269353.301  0.41%     -   79s
     0     0 269353.316    0 4563 270470.000 269353.316  0.41%     -   80s
     0     0 269355.613    0 4574 270470.000 269355.613  0.41%     -   83s
     0     0 269356.516    0 4587 270470.000 269356.516  0.41%     -   85s
     0     0 269356.565    0 4590 270470.000 269356.565  0.41%     -   86s
     0     0 269356.586    0 4589 270470.000 269356.586  0.41%     -   86s
     0     0 269359.662    0 4582 270470.000 269359.662  0.41%     -   89s
H    0     0                    270464.00000 269359.662  0.41%     -   90s
     0     0 269359.773    0 4592 270464.000 269359.773  0.41%     -   91s
     0     0 269359.787    0 4595 270464.000 269359.787  0.41%     -   91s
     0     0 269361.103    0 4578 270464.000 269361.103  0.41%     -   94s
     0     0 269361.759    0 4576 270464.000 269361.759  0.41%     -   97s
     0     0 269361.919    0 4567 270464.000 269361.919  0.41%     -   97s
     0     0 269361.949    0 4573 270464.000 269361.949  0.41%     -   98s
     0     0 269363.439    0 4584 270464.000 269363.439  0.41%     -  100s
H    0     0                    270463.00000 269363.439  0.41%     -  102s
     0     0 269363.749    0 4536 270463.000 269363.749  0.41%     -  103s
     0     0 269363.757    0 4537 270463.000 269363.757  0.41%     -  103s
     0     0 269365.923    0 4582 270463.000 269365.923  0.41%     -  106s
     0     0 269366.448    0 4595 270463.000 269366.448  0.41%     -  109s
     0     0 269366.648    0 4603 270463.000 269366.648  0.41%     -  109s
     0     0 269366.701    0 4619 270463.000 269366.701  0.41%     -  110s
     0     0 269366.753    0 4609 270463.000 269366.753  0.41%     -  110s
     0     0 269366.753    0 4613 270463.000 269366.753  0.41%     -  111s
     0     0 269369.148    0 4610 270463.000 269369.148  0.40%     -  114s
H    0     0                    270456.00000 269369.148  0.40%     -  115s
     0     0 269369.315    0 4606 270456.000 269369.315  0.40%     -  116s
     0     0 269369.325    0 4605 270456.000 269369.325  0.40%     -  116s
     0     0 269371.163    0 4599 270456.000 269371.163  0.40%     -  120s
     0     0 269371.493    0 4605 270456.000 269371.493  0.40%     -  122s
     0     0 269371.499    0 4600 270456.000 269371.499  0.40%     -  122s
     0     0 269372.118    0 4599 270456.000 269372.118  0.40%     -  125s
H    0     0                    270455.00000 269372.118  0.40%     -  126s
     0     0 269372.338    0 4615 270455.000 269372.338  0.40%     -  127s
     0     0 269372.488    0 4618 270455.000 269372.488  0.40%     -  128s
     0     0 269372.513    0 4622 270455.000 269372.513  0.40%     -  129s
     0     0 269373.693    0 4604 270455.000 269373.693  0.40%     -  132s
     0     0 269373.954    0 4619 270455.000 269373.954  0.40%     -  134s
     0     0 269373.983    0 4630 270455.000 269373.983  0.40%     -  134s
     0     0 269375.516    0 4620 270455.000 269375.516  0.40%     -  138s
H    0     0                    270445.00000 269375.516  0.40%     -  139s
     0     0 269375.792    0 4773 270445.000 269375.792  0.40%     -  140s
     0     0 269375.858    0 4770 270445.000 269375.858  0.40%     -  141s
     0     0 269375.878    0 4780 270445.000 269375.878  0.40%     -  141s
     0     0 269376.291    0 4644 270445.000 269376.291  0.40%     -  144s
     0     0 269376.369    0 4641 270445.000 269376.369  0.40%     -  146s
     0     0 269376.372    0 4634 270445.000 269376.372  0.40%     -  146s
     0     0 269376.966    0 4632 270445.000 269376.966  0.39%     -  149s
     0     0 269376.966    0 4615 270445.000 269376.966  0.39%     -  161s
H    0     0                    270024.00000 269376.966  0.24%     -  191s
     0     0 269376.966    0 4348 270024.000 269376.966  0.24%     -  211s
H    0     0                    270004.00000 269376.966  0.23%     -  211s
     0     0 269376.966    0 4539 270004.000 269376.966  0.23%     -  219s
H    0     0                    270003.00000 269376.966  0.23%     -  235s
     0     0 269378.435    0 4568 270003.000 269378.435  0.23%     -  241s
     0     0 269379.832    0 4564 270003.000 269379.832  0.23%     -  243s
     0     0 269379.919    0 4576 270003.000 269379.919  0.23%     -  243s
     0     0 269379.930    0 4583 270003.000 269379.930  0.23%     -  244s
     0     0 269381.992    0 4583 270003.000 269381.992  0.23%     -  250s
     0     0 269382.082    0 4575 270003.000 269382.082  0.23%     -  251s
     0     0 269382.106    0 4582 270003.000 269382.106  0.23%     -  252s
     0     0 269382.550    0 4717 270003.000 269382.550  0.23%     -  256s
     0     0 269382.835    0 4730 270003.000 269382.835  0.23%     -  257s
     0     0 269382.854    0 4730 270003.000 269382.854  0.23%     -  257s
     0     0 269384.084    0 4571 270003.000 269384.084  0.23%     -  262s
     0     0 269384.172    0 4571 270003.000 269384.172  0.23%     -  263s
     0     0 269384.205    0 4565 270003.000 269384.205  0.23%     -  263s
     0     0 269384.922    0 4724 270003.000 269384.922  0.23%     -  266s
     0     0 269384.942    0 4722 270003.000 269384.942  0.23%     -  267s
     0     0 269387.555    0 4675 270003.000 269387.555  0.23%     -  270s
H    0     0                    269995.00000 269387.555  0.22%     -  271s
     0     0 269387.794    0 4679 269995.000 269387.794  0.22%     -  272s
     0     0 269387.824    0 4679 269995.000 269387.824  0.22%     -  272s
     0     0 269388.621    0 4725 269995.000 269388.621  0.22%     -  275s
     0     0 269388.737    0 4729 269995.000 269388.737  0.22%     -  276s
     0     0 269388.742    0 4729 269995.000 269388.742  0.22%     -  276s
     0     0 269389.868    0 4576 269995.000 269389.868  0.22%     -  279s
H    0     0                    269988.00000 269389.868  0.22%     -  280s
     0     0 269389.969    0 4596 269988.000 269389.969  0.22%     -  280s
     0     0 269389.978    0 4748 269988.000 269389.978  0.22%     -  281s
     0     0 269391.034    0 4734 269988.000 269391.034  0.22%     -  283s
     0     0 269391.191    0 4737 269988.000 269391.191  0.22%     -  284s
     0     0 269391.206    0 4740 269988.000 269391.206  0.22%     -  285s
     0     0 269391.479    0 4729 269988.000 269391.479  0.22%     -  287s
     0     0 269391.479    0 4711 269988.000 269391.479  0.22%     -  293s

Cutting planes:
  Zero half: 196

Explored 1 nodes (39692 simplex iterations) in 300.02 seconds
Thread count was 16 (of 16 available processors)

Solution count 10: 269988 269995 270003 ... 270464

Time limit reached
Best objective 2.699880000000e+05, best bound 2.693920000000e+05, gap 0.2208%

User-callback calls 29058, time in user-callback 0.40 sec
Result: runtime=294.09sec; objective=269988; gap=0.2208%
Solution written to /autofs/unityaccount/cremi/mdeboute/Bureau/multi-period-flp/solution//instMulti_I50_J250_T8_1_result.txt
